* ENCODING=ISO-8859-1
NAME          CPLEX
ROWS
 N  obj1    
 G  c1      
 G  c2      
 G  c3      
 G  c4      
 G  c5      
 G  c6      
 G  c7      
 G  c8      
 G  c9      
 G  c10     
 G  c11     
 G  c12     
 G  c13     
 G  c14     
 G  c15     
 G  c16     
 G  c17     
 G  c18     
 G  c19     
 G  c20     
 G  c21     
 G  c22     
 G  c23     
 G  c24     
 G  c25     
 G  c26     
 G  c27     
 G  c28     
 G  c29     
 G  c30     
 G  c31     
 G  c32     
 G  c33     
 G  c34     
 G  c35     
COLUMNS
    MARK0000  'MARKER'                 'INTORG'
    x1        obj1                            1
    x1        c9                            393
    x1        c12                           103
    x1        c19                           909
    x2        obj1                            1
    x2        c19                           254
    x3        obj1                            1
    x3        c15                           682
    x4        obj1                            1
    x4        c23                           125
    x4        c24                           856
    x5        obj1                            1
    x5        c6                            459
    x5        c15                           667
    x6        obj1                            1
    x6        c9                            584
    x6        c25                           948
    x7        obj1                            1
    x7        c11                           200
    x7        c23                           584
    x7        c25                           311
    x8        obj1                            1
    x8        c17                           806
    x8        c23                           675
    x8        c32                           534
    x9        obj1                            1
    x9        c14                           183
    x9        c34                           663
    x10       obj1                            1
    x10       c3                            408
    x10       c8                            397
    x11       obj1                            1
    x11       c15                           832
    x11       c18                           842
    x11       c22                           117
    x11       c26                           673
    x11       c29                           361
    x11       c32                           644
    x11       c33                           295
    x12       obj1                            1
    x12       c5                            460
    x12       c22                           329
    x12       c28                           691
    x13       obj1                            1
    x13       c6                            404
    x13       c11                           501
    x13       c18                           980
    x13       c34                           747
    x14       obj1                            1
    x14       c1                            207
    x14       c2                            409
    x14       c4                            299
    x14       c6                            305
    x14       c13                           916
    x14       c28                           671
    x15       obj1                            1
    x15       c4                            783
    x15       c16                           761
    x15       c17                           833
    x15       c21                           931
    x15       c23                           542
    x15       c24                           234
    x15       c28                           196
    x15       c31                           726
    x16       obj1                            1
    x16       c7                            186
    x16       c17                           650
    x16       c22                           925
    x17       obj1                            1
    x17       c13                           298
    x17       c23                           264
    x18       obj1                            1
    x18       c8                            917
    x18       c11                           229
    x18       c17                           591
    x18       c19                           676
    x19       obj1                            1
    x19       c3                            867
    x19       c5                            721
    x19       c7                            972
    x19       c9                            443
    x19       c18                           875
    x20       obj1                            1
    x20       c5                            384
    x20       c23                           607
    x20       c26                           949
    x20       c27                           337
    x21       obj1                            1
    x21       c15                           783
    x21       c19                           436
    x21       c24                           154
    x21       c29                           251
    x21       c35                           745
    x22       obj1                            1
    x22       c16                           495
    x23       obj1                            1
    x24       obj1                            1
    x24       c9                            661
    x24       c35                           496
    x25       obj1                            1
    x25       c7                            840
    x25       c18                           651
    x25       c24                           168
    x26       obj1                            1
    x26       c9                            689
    x26       c16                           362
    x26       c20                           576
    x27       obj1                            1
    x27       c10                           427
    x27       c24                           421
    x27       c25                           802
    x27       c27                           665
    x27       c32                           225
    x28       obj1                            1
    x28       c17                           226
    x29       obj1                            1
    x29       c14                           362
    x29       c18                           168
    x29       c20                           993
    x29       c26                           696
    x29       c29                           654
    x30       obj1                            1
    x30       c11                           533
    x30       c15                           308
    x30       c16                           121
    x30       c20                           832
    x30       c23                           163
    x30       c32                           994
    x31       obj1                            1
    x31       c6                            901
    x31       c31                           626
    x32       obj1                            1
    x32       c1                            429
    x32       c2                            519
    x32       c16                           194
    x32       c32                           973
    x33       obj1                            1
    x33       c1                            184
    x33       c2                            569
    x33       c15                           375
    x33       c19                           568
    x33       c21                           708
    x34       obj1                            1
    x34       c9                            434
    x34       c10                           619
    x34       c28                           505
    x35       obj1                            1
    x35       c16                           915
    x35       c23                           794
    x36       obj1                            1
    x36       c5                            212
    x36       c13                           964
    x36       c18                           442
    x36       c21                           893
    x36       c30                           192
    x36       c34                           110
    x36       c35                           712
    x37       obj1                            1
    x37       c5                            217
    x37       c8                            400
    x37       c9                            684
    x37       c21                           583
    x38       obj1                            1
    x38       c13                           659
    x38       c17                           331
    x38       c18                           682
    x38       c19                           524
    x38       c23                           317
    x38       c25                           449
    x38       c34                           227
    x39       obj1                            1
    x39       c1                            787
    x39       c3                            813
    x39       c4                            145
    x39       c11                           696
    x39       c15                           943
    x39       c29                           403
    x40       obj1                            1
    x40       c14                           292
    x40       c20                           313
    x41       obj1                            1
    x41       c12                           426
    x41       c17                           911
    x41       c20                           488
    x41       c25                           580
    x42       obj1                            1
    x42       c12                           659
    x42       c20                           290
    x43       obj1                            1
    x43       c4                            298
    x43       c19                           300
    x43       c33                           149
    x44       obj1                            1
    x44       c13                           593
    x45       obj1                            1
    x46       obj1                            1
    x46       c1                            625
    x46       c13                           341
    x46       c27                           922
    x47       obj1                            1
    x47       c15                           486
    x47       c19                           656
    x47       c26                           799
    x47       c31                           966
    x48       obj1                            1
    x48       c13                           359
    x48       c21                           645
    x48       c30                           788
    x48       c32                           268
    x48       c33                           669
    x49       obj1                            1
    x49       c1                            314
    x49       c6                            366
    x49       c18                           247
    x50       obj1                            1
    x50       c32                           294
    x51       obj1                            1
    x51       c4                            978
    x51       c5                            789
    x51       c6                            703
    x51       c9                            664
    x51       c16                           218
    x51       c22                           368
    x52       obj1                            1
    x52       c7                            971
    x52       c14                           282
    x52       c21                           656
    x52       c30                           450
    x53       obj1                            1
    x53       c12                           307
    x53       c14                           533
    x53       c15                           413
    x53       c23                           857
    x54       obj1                            1
    x54       c10                           387
    x54       c16                           605
    x55       obj1                            1
    x55       c19                           576
    x56       obj1                            1
    x56       c3                            909
    x56       c14                           438
    x57       obj1                            1
    x57       c2                            931
    x57       c14                           623
    x57       c20                           193
    x57       c24                           782
    x57       c26                           439
    x57       c32                           206
    x58       obj1                            1
    x58       c6                            841
    x58       c20                           202
    x58       c28                           636
    x58       c31                           948
    x58       c35                           414
    x59       obj1                            1
    x59       c14                           322
    x60       obj1                            1
    x60       c16                           265
    x60       c27                           775
    x60       c30                           210
    x61       obj1                            1
    x61       c20                           790
    x62       obj1                            1
    x62       c10                           813
    x62       c14                           219
    x62       c16                           867
    x62       c24                           368
    x62       c30                           261
    x62       c31                           112
    x63       obj1                            1
    x63       c8                            341
    x63       c20                           237
    x63       c24                           143
    x63       c34                           457
    x64       obj1                            1
    x64       c6                            177
    x64       c8                            775
    x64       c13                           690
    x64       c29                           716
    x64       c30                           384
    x65       obj1                            1
    x65       c8                            708
    x65       c26                           393
    x65       c33                           177
    x66       obj1                            1
    x66       c11                           396
    x66       c24                           170
    x67       obj1                            1
    x67       c5                            191
    x67       c6                            720
    x67       c11                           589
    x67       c13                           121
    x67       c19                           416
    x68       obj1                            1
    x68       c10                           139
    x68       c28                           404
    x69       obj1                            1
    x69       c3                            232
    x69       c4                            395
    x69       c15                           123
    x69       c22                           470
    x70       obj1                            1
    x70       c7                            824
    x70       c8                            674
    x70       c17                           503
    x70       c25                           614
    x70       c28                           477
    x70       c32                           696
    MARK0001  'MARKER'                 'INTEND'
RHS
    rhs       c1                           1273
    rhs       c2                           1214
    rhs       c3                           1615
    rhs       c4                           1449
    rhs       c5                           1487
    rhs       c6                           2438
    rhs       c7                           1897
    rhs       c8                           2106
    rhs       c9                           2276
    rhs       c10                          1193
    rhs       c11                          1572
    rhs       c12                           748
    rhs       c13                          2471
    rhs       c14                          1627
    rhs       c15                          2806
    rhs       c16                          2402
    rhs       c17                          2426
    rhs       c18                          2444
    rhs       c19                          2658
    rhs       c20                          2457
    rhs       c21                          2208
    rhs       c22                          1105
    rhs       c23                          2464
    rhs       c24                          1648
    rhs       c25                          1852
    rhs       c26                          1975
    rhs       c27                          1350
    rhs       c28                          1790
    rhs       c29                          1193
    rhs       c30                          1143
    rhs       c31                          1689
    rhs       c32                          2417
    rhs       c33                           645
    rhs       c34                          1102
    rhs       c35                          1184
BOUNDS
 LI bnd       x1        0
 LI bnd       x2        0
 LI bnd       x3        0
 LI bnd       x4        0
 LI bnd       x5        0
 LI bnd       x6        0
 LI bnd       x7        0
 LI bnd       x8        0
 LI bnd       x9        0
 LI bnd       x10       0
 LI bnd       x11       0
 LI bnd       x12       0
 LI bnd       x13       0
 LI bnd       x14       0
 LI bnd       x15       0
 LI bnd       x16       0
 LI bnd       x17       0
 LI bnd       x18       0
 LI bnd       x19       0
 LI bnd       x20       0
 LI bnd       x21       0
 LI bnd       x22       0
 LI bnd       x23       0
 LI bnd       x24       0
 LI bnd       x25       0
 LI bnd       x26       0
 LI bnd       x27       0
 LI bnd       x28       0
 LI bnd       x29       0
 LI bnd       x30       0
 LI bnd       x31       0
 LI bnd       x32       0
 LI bnd       x33       0
 LI bnd       x34       0
 LI bnd       x35       0
 LI bnd       x36       0
 LI bnd       x37       0
 LI bnd       x38       0
 LI bnd       x39       0
 LI bnd       x40       0
 LI bnd       x41       0
 LI bnd       x42       0
 LI bnd       x43       0
 LI bnd       x44       0
 LI bnd       x45       0
 LI bnd       x46       0
 LI bnd       x47       0
 LI bnd       x48       0
 LI bnd       x49       0
 LI bnd       x50       0
 LI bnd       x51       0
 LI bnd       x52       0
 LI bnd       x53       0
 LI bnd       x54       0
 LI bnd       x55       0
 LI bnd       x56       0
 LI bnd       x57       0
 LI bnd       x58       0
 LI bnd       x59       0
 LI bnd       x60       0
 LI bnd       x61       0
 LI bnd       x62       0
 LI bnd       x63       0
 LI bnd       x64       0
 LI bnd       x65       0
 LI bnd       x66       0
 LI bnd       x67       0
 LI bnd       x68       0
 LI bnd       x69       0
 LI bnd       x70       0
ENDATA
